SECTION Graph
Nodes 390
Edges 786
E 1 350 7
E 1 352 1
E 2 3 14
E 2 353 1
E 3 4 1
E 3 358 1
E 4 359 1
E 5 6 2
E 5 128 32
E 5 143 1
E 6 123 1
E 6 130 32
E 6 150 6
E 7 8 1
E 7 320 12
E 7 329 7
E 7 342 6
E 8 9 14
E 8 322 12
E 8 343 6
E 9 10 1
E 9 340 12
E 9 354 6
E 10 341 12
E 10 355 6
E 11 12 1
E 11 290 12
E 11 297 7
E 11 315 4
E 12 13 14
E 12 291 12
E 12 317 4
E 13 14 1
E 13 314 12
E 13 333 4
E 14 316 12
E 14 336 4
E 15 16 1
E 15 262 7
E 15 281 4
E 16 17 14
E 16 283 4
E 17 18 1
E 17 302 4
E 18 306 4
E 19 20 1
E 19 334 5
E 20 21 14
E 20 337 5
E 21 22 1
E 21 349 5
E 22 351 5
E 23 24 1
E 23 304 7
E 23 307 6
E 23 318 3
E 24 25 14
E 24 310 6
E 24 319 3
E 25 26 1
E 25 327 6
E 25 338 3
E 26 329 6
E 26 339 3
E 26 342 7
E 27 28 1
E 27 267 7
E 27 273 4
E 27 286 5
E 28 29 14
E 28 276 4
E 28 288 5
E 29 30 1
E 29 295 4
E 29 312 5
E 30 297 4
E 30 313 5
E 30 315 7
E 31 32 1
E 31 235 7
E 31 240 4
E 31 255 7
E 32 33 14
E 32 243 4
E 32 257 7
E 33 34 1
E 33 260 4
E 33 278 7
E 34 262 4
E 34 280 7
E 34 281 7
E 35 36 1
E 35 299 1
E 36 37 14
E 36 303 1
E 37 38 1
E 37 323 1
E 38 325 1
E 38 334 7
E 39 40 1
E 39 251 11
E 39 258 7
E 39 268 1
E 40 41 14
E 40 253 11
E 40 270 1
E 41 42 1
E 41 275 11
E 41 292 1
E 42 277 11
E 42 293 1
E 42 305 7
E 43 44 1
E 43 225 11
E 43 228 7
E 43 239 1
E 44 45 14
E 44 226 11
E 44 242 1
E 45 46 1
E 45 245 11
E 45 259 1
E 46 247 11
E 46 261 1
E 46 271 7
E 47 48 1
E 47 211 1
E 48 49 14
E 48 213 1
E 49 50 1
E 49 229 1
E 50 230 1
E 51 52 1
E 51 70 7
E 51 263 1
E 52 53 14
E 52 264 1
E 53 54 1
E 53 287 1
E 54 289 1
E 54 299 7
E 55 56 1
E 55 74 7
E 55 234 1
E 55 249 9
E 56 57 14
E 56 236 1
E 56 250 9
E 57 58 1
E 57 256 1
E 57 269 9
E 58 258 1
E 58 266 6
E 58 268 7
E 59 60 1
E 59 78 7
E 59 208 1
E 59 221 9
E 60 61 14
E 60 210 1
E 60 223 9
E 61 62 1
E 61 227 1
E 61 241 9
E 62 228 1
E 62 239 7
E 62 244 9
E 63 64 1
E 63 82 7
E 63 185 4
E 64 65 14
E 64 186 4
E 65 66 1
E 65 205 4
E 66 206 4
E 66 211 7
E 67 68 1
E 67 86 7
E 67 231 1
E 68 69 14
E 68 232 1
E 69 70 1
E 69 252 1
E 70 254 1
E 71 72 1
E 71 90 7
E 71 189 12
E 71 219 9
E 72 73 14
E 72 191 12
E 72 220 9
E 73 74 1
E 73 212 12
E 73 237 9
E 74 214 12
E 74 238 9
E 75 76 1
E 75 165 7
E 75 178 1
E 75 189 9
E 76 77 14
E 76 180 1
E 76 191 9
E 77 78 1
E 77 200 1
E 77 212 9
E 78 202 1
E 78 214 9
E 79 80 1
E 79 98 7
E 79 147 4
E 80 81 14
E 80 148 4
E 81 82 1
E 81 170 4
E 82 174 4
E 83 84 1
E 83 196 7
E 83 203 1
E 84 85 14
E 84 204 1
E 85 86 1
E 85 222 1
E 86 224 1
E 87 88 1
E 87 149 12
E 87 162 7
E 87 187 9
E 88 89 14
E 88 151 12
E 88 188 9
E 89 90 1
E 89 181 12
E 89 207 9
E 90 182 12
E 90 209 9
E 91 92 1
E 91 135 10
E 91 138 7
E 91 141 2
E 92 93 14
E 92 136 10
E 92 142 2
E 93 94 1
E 93 144 10
E 93 163 2
E 94 146 10
E 94 165 2
E 94 177 7
E 95 96 1
E 95 129 7
E 95 135 11
E 96 97 14
E 96 136 11
E 97 98 1
E 97 144 11
E 98 146 11
E 99 100 1
E 99 172 8
E 99 175 7
E 100 101 14
E 100 176 8
E 101 102 1
E 101 195 8
E 102 198 8
E 103 104 1
E 103 139 9
E 103 167 11
E 104 105 14
E 104 140 9
E 104 169 11
E 105 106 1
E 105 160 9
E 105 190 11
E 106 162 9
E 106 187 7
E 106 193 11
E 107 108 1
E 107 131 11
E 107 134 7
E 107 139 12
E 108 109 14
E 108 132 11
E 108 140 12
E 109 110 1
E 109 137 11
E 109 160 12
E 110 138 11
E 110 149 7
E 110 162 12
E 111 112 1
E 111 125 11
E 111 131 10
E 112 113 14
E 112 126 11
E 112 132 10
E 113 114 1
E 113 127 11
E 113 137 10
E 114 129 11
E 114 135 7
E 114 138 10
E 115 116 1
E 116 164 6
E 117 118 1
E 117 166 6
E 117 171 4
E 118 175 4
E 119 120 1
E 120 121 14
E 120 128 54
E 121 122 1
E 121 133 48
E 122 125 23
E 122 134 48
E 123 124 1
E 123 143 2
E 123 152 6
E 124 145 2
E 124 156 6
E 124 161 8
E 125 126 1
E 126 127 14
E 127 129 1
E 128 130 2
E 130 133 6
E 131 132 1
E 132 137 14
E 133 134 1
E 133 150 32
E 134 153 32
E 135 136 1
E 136 144 14
E 137 138 1
E 139 140 1
E 140 160 14
E 141 142 1
E 141 149 9
E 142 151 9
E 142 163 14
E 143 145 1
E 144 146 1
E 145 155 8
E 146 154 7
E 147 148 1
E 147 154 7
E 148 158 7
E 148 170 14
E 149 151 1
E 150 152 1
E 150 153 1
E 151 181 14
E 152 156 1
E 152 157 1
E 153 157 1
E 153 167 7
E 154 158 1
E 154 177 10
E 155 161 2
E 155 164 4
E 156 159 1
E 156 171 8
E 157 159 1
E 157 168 7
E 158 179 10
E 158 183 14
E 159 172 7
E 159 175 8
E 160 162 1
E 161 166 4
E 161 171 6
E 163 165 1
E 163 181 9
E 164 166 2
E 165 182 9
E 167 168 1
E 167 169 1
E 168 172 1
E 168 173 1
E 169 173 1
E 169 190 14
E 170 174 1
E 170 183 7
E 171 175 1
E 172 176 1
E 173 176 1
E 173 192 14
E 174 184 7
E 174 185 7
E 176 195 14
E 177 178 1
E 177 179 1
E 178 180 1
E 179 180 1
E 179 199 14
E 180 200 14
E 181 182 1
E 182 189 7
E 183 184 1
E 183 199 10
E 184 194 7
E 184 201 10
E 185 186 1
E 185 194 7
E 186 197 7
E 186 205 14
E 187 188 1
E 187 203 11
E 188 204 11
E 188 207 14
E 189 191 1
E 190 192 1
E 190 193 1
E 191 212 14
E 192 195 1
E 192 196 1
E 193 196 1
E 193 203 7
E 194 197 1
E 194 208 11
E 195 198 1
E 196 198 1
E 197 210 11
E 197 215 14
E 199 200 1
E 199 201 1
E 200 202 1
E 201 202 1
E 202 208 7
E 203 204 1
E 204 222 14
E 205 206 1
E 205 215 7
E 206 216 7
E 206 217 7
E 207 209 1
E 207 222 11
E 208 210 1
E 209 219 7
E 209 224 11
E 210 227 14
E 211 213 1
E 211 217 4
E 212 214 1
E 213 218 4
E 213 229 14
E 214 221 7
E 215 216 1
E 215 227 11
E 216 225 7
E 216 228 11
E 217 218 1
E 217 225 7
E 218 226 7
E 218 233 14
E 219 220 1
E 219 231 11
E 220 232 11
E 220 237 14
E 221 223 1
E 221 234 11
E 222 224 1
E 223 236 11
E 223 241 14
E 224 231 7
E 225 226 1
E 226 245 14
E 227 228 1
E 229 230 1
E 229 233 4
E 230 235 4
E 230 240 7
E 231 232 1
E 232 252 14
E 233 235 1
E 233 245 7
E 234 236 1
E 235 247 7
E 236 256 14
E 237 238 1
E 237 252 11
E 238 249 7
E 238 254 11
E 239 242 1
E 239 246 4
E 240 243 1
E 241 244 1
E 241 256 11
E 242 248 4
E 242 259 14
E 243 260 14
E 244 251 7
E 244 258 11
E 245 247 1
E 246 248 1
E 246 251 5
E 247 255 7
E 248 253 5
E 248 265 14
E 249 250 1
E 249 263 11
E 250 264 11
E 250 269 14
E 251 253 1
E 252 254 1
E 253 275 14
E 254 263 7
E 255 257 1
E 255 271 11
E 256 258 1
E 257 274 11
E 257 278 14
E 259 261 1
E 259 265 4
E 260 262 1
E 261 267 4
E 261 273 7
E 263 264 1
E 264 287 14
E 265 267 1
E 265 275 5
E 266 272 3
E 266 279 7
E 267 277 5
E 268 270 1
E 268 279 6
E 269 272 1
E 269 287 11
E 270 282 6
E 270 292 14
E 271 273 1
E 271 274 1
E 272 284 7
E 272 289 11
E 273 276 1
E 274 276 1
E 274 294 14
E 275 277 1
E 276 295 14
E 277 286 7
E 278 280 1
E 278 294 11
E 279 282 1
E 279 284 3
E 280 290 7
E 280 296 11
E 281 283 1
E 281 290 7
E 282 285 3
E 282 301 14
E 283 291 7
E 283 302 14
E 284 285 1
E 284 298 11
E 285 300 11
E 285 309 14
E 286 288 1
E 286 305 11
E 287 289 1
E 288 308 11
E 288 312 14
E 289 298 7
E 290 291 1
E 291 314 14
E 292 293 1
E 292 301 6
E 293 304 6
E 293 307 7
E 294 295 1
E 294 296 1
E 295 297 1
E 296 297 1
E 298 299 1
E 298 300 1
E 299 303 1
E 300 303 1
E 300 321 14
E 301 304 1
E 301 309 3
E 302 306 1
E 302 314 7
E 303 323 14
E 304 311 3
E 305 307 1
E 305 308 1
E 306 316 7
E 307 310 1
E 308 310 1
E 308 326 14
E 309 311 1
E 309 321 11
E 310 327 14
E 311 318 7
E 311 324 11
E 312 313 1
E 312 326 11
E 313 320 7
E 313 328 11
E 314 316 1
E 315 317 1
E 315 320 5
E 317 322 5
E 317 333 14
E 318 319 1
E 318 330 11
E 319 332 11
E 319 338 14
E 320 322 1
E 321 323 1
E 321 324 1
E 322 340 14
E 323 325 1
E 324 325 1
E 324 330 7
E 325 331 7
E 326 327 1
E 326 328 1
E 327 329 1
E 328 329 1
E 330 331 1
E 330 332 1
E 331 334 1
E 331 335 1
E 332 335 1
E 332 346 14
E 333 336 1
E 333 340 5
E 334 337 1
E 335 337 1
E 335 347 14
E 336 341 5
E 337 349 14
E 338 339 1
E 338 346 11
E 339 344 7
E 339 348 11
E 340 341 1
E 342 343 1
E 342 344 3
E 343 345 3
E 343 354 14
E 344 345 1
E 344 352 11
E 345 353 11
E 345 356 14
E 346 347 1
E 346 348 1
E 347 349 1
E 347 350 1
E 348 350 1
E 348 352 7
E 349 351 1
E 350 351 1
E 352 353 1
E 353 358 14
E 354 355 1
E 354 356 3
E 355 357 3
E 356 357 1
E 356 358 11
E 357 359 11
E 358 359 1
E 1 360 100000
E 2 360 100000
E 3 360 100000
E 4 360 100000
E 5 361 100000
E 6 361 100000
E 7 362 100000
E 8 362 100000
E 9 362 100000
E 10 362 100000
E 11 363 100000
E 12 363 100000
E 13 363 100000
E 14 363 100000
E 15 364 100000
E 16 364 100000
E 17 364 100000
E 18 364 100000
E 19 365 100000
E 20 365 100000
E 21 365 100000
E 22 365 100000
E 23 366 100000
E 24 366 100000
E 25 366 100000
E 26 366 100000
E 27 367 100000
E 28 367 100000
E 29 367 100000
E 30 367 100000
E 31 368 100000
E 32 368 100000
E 33 368 100000
E 34 368 100000
E 35 369 100000
E 36 369 100000
E 37 369 100000
E 38 369 100000
E 39 370 100000
E 40 370 100000
E 41 370 100000
E 42 370 100000
E 43 371 100000
E 44 371 100000
E 45 371 100000
E 46 371 100000
E 47 372 100000
E 48 372 100000
E 49 372 100000
E 50 372 100000
E 51 373 100000
E 52 373 100000
E 53 373 100000
E 54 373 100000
E 55 374 100000
E 56 374 100000
E 57 374 100000
E 58 374 100000
E 59 375 100000
E 60 375 100000
E 61 375 100000
E 62 375 100000
E 63 376 100000
E 64 376 100000
E 65 376 100000
E 66 376 100000
E 67 377 100000
E 68 377 100000
E 69 377 100000
E 70 377 100000
E 71 378 100000
E 72 378 100000
E 73 378 100000
E 74 378 100000
E 75 379 100000
E 76 379 100000
E 77 379 100000
E 78 379 100000
E 79 380 100000
E 80 380 100000
E 81 380 100000
E 82 380 100000
E 83 381 100000
E 84 381 100000
E 85 381 100000
E 86 381 100000
E 87 382 100000
E 88 382 100000
E 89 382 100000
E 90 382 100000
E 91 383 100000
E 92 383 100000
E 93 383 100000
E 94 383 100000
E 95 384 100000
E 96 384 100000
E 97 384 100000
E 98 384 100000
E 99 385 100000
E 100 385 100000
E 101 385 100000
E 102 385 100000
E 103 386 100000
E 104 386 100000
E 105 386 100000
E 106 386 100000
E 107 387 100000
E 108 387 100000
E 109 387 100000
E 110 387 100000
E 111 388 100000
E 112 388 100000
E 113 388 100000
E 114 388 100000
E 115 389 100000
E 116 389 100000
E 117 389 100000
E 118 389 100000
E 119 390 100000
E 120 390 100000
E 121 390 100000
E 122 390 100000
E 123 361 100000
E 124 361 100000
END

SECTION Terminals
Terminals 31
T 360
T 361
T 362
T 363
T 364
T 365
T 366
T 367
T 368
T 369
T 370
T 371
T 372
T 373
T 374
T 375
T 376
T 377
T 378
T 379
T 380
T 381
T 382
T 383
T 384
T 385
T 386
T 387
T 388
T 389
T 390
END

SECTION Tree Decomposition
c We do not guarantee that this tree decomposition has minimum width.
s td 321 21 390
b 1 115 116 389
b 2 119 390 120
b 3 116 389 164
b 4 390 120 121 122
b 5 389 118 117 164
b 6 22 365 21 351
b 7 102 101 385 198
b 8 2 3 353 360
b 9 118 117 164 175
b 10 120 121 128 122
b 11 121 128 133 122
b 12 35 36 369 299
b 13 47 372 48 211
b 14 50 372 49 230
b 15 4 3 359 360
b 16 18 364 17 306
b 17 19 365 20 334
b 18 3 358 359 353 360
b 19 355 357 354 10
b 20 1 360 352 350
b 21 125 126 111 122
b 22 127 129 126 113
b 23 130 128 133 6
b 24 131 111 132 107
b 25 139 103 107 140
b 26 141 149 91 142
b 27 143 145 123 5
b 28 147 148 79 154
b 29 166 117 164 161
b 30 117 164 161 171 175
b 31 164 155 161 171 175
b 32 178 177 180 75
b 33 201 202 199 184
b 34 234 236 55 221
b 35 240 243 31 230
b 36 246 239 248 251
b 37 260 262 243 33
b 38 266 272 58 279
b 39 296 297 280 294
b 40 316 306 314 14
b 41 328 329 326 313
b 42 336 341 333 14
b 43 380 80 81 79 82
b 44 80 81 148 79 82
b 45 81 148 79 170 82
b 46 361 124 123 5 6
b 47 358 359 356 353 360
b 48 359 357 356 353 360
b 49 366 24 25 26 23
b 50 370 41 40 42 39
b 51 373 53 52 51 54
b 52 375 61 59 60 62
b 53 378 72 71 73 74
b 54 382 88 87 89 90
b 55 374 56 55 57 58
b 56 101 385 100 195 198
b 57 385 100 195 198 99
b 58 100 195 198 176 99
b 59 372 48 49 211 230
b 60 48 49 213 211 230
b 61 49 229 213 211 230
b 62 383 92 91 93 94
b 63 384 97 96 95 98
b 64 371 44 46 43 45
b 65 128 133 5 6 122
b 66 97 96 144 95 98
b 67 96 144 95 136 98
b 68 364 17 16 306 15
b 69 17 16 302 306 15
b 70 16 302 306 283 15
b 71 302 306 283 314 15
b 72 306 283 314 14 15
b 73 365 20 21 351 334
b 74 20 21 337 351 334
b 75 21 337 349 351 334
b 76 363 13 12 14 11
b 77 337 349 351 335 334
b 78 349 351 347 335 334
b 79 351 347 335 334 350
b 80 387 108 109 107 110
b 81 347 335 334 346 350
b 82 362 9 8 7 10
b 83 195 198 176 192 99
b 84 198 176 192 99 196
b 85 155 161 171 145 175
b 86 161 171 145 124 175
b 87 171 145 124 156 175
b 88 53 52 51 54 287
b 89 52 264 51 54 287
b 90 381 84 85 83 86
b 91 229 213 211 233 230
b 92 213 211 218 233 230
b 93 377 68 69 67 70
b 94 368 32 33 34 31
b 95 68 69 67 232 70
b 96 69 67 232 252 70
b 97 36 369 37 303 299
b 98 369 37 303 38 299
b 99 37 303 323 38 299
b 100 386 104 103 105 106
b 101 303 323 38 299 300
b 102 367 29 27 28 30
b 103 388 112 111 113 114
b 104 376 64 65 63 66
b 105 379 76 75 77 78
b 106 64 65 63 186 66
b 107 65 63 186 205 66
b 108 84 85 204 83 86
b 109 85 204 83 222 86
b 110 129 126 113 114 95
b 111 341 333 14 10 340
b 112 262 243 33 34 15
b 113 145 124 123 156 175 5
b 114 124 123 156 175 5 6
b 115 123 156 175 152 5 6
b 116 156 175 152 159 5 6
b 117 112 126 111 113 132 114
b 118 175 152 159 5 6 99
b 119 335 334 332 331 346 350
b 120 334 332 331 38 346 350
b 121 108 132 109 107 140 110
b 122 357 356 353 360 354 10
b 123 356 353 360 345 354 10
b 124 353 360 345 352 354 10
b 125 360 345 352 354 10 350
b 126 323 325 321 38 299 300
b 127 148 79 170 158 154 82
b 128 79 170 158 98 154 82
b 129 176 192 99 172 173 196
b 130 192 99 172 173 190 196
b 131 13 12 314 333 14 11
b 132 133 5 6 150 134 122
b 133 32 243 33 34 257 31
b 134 283 314 291 281 14 15
b 135 265 259 248 267 275
b 136 256 258 241 236 57
b 137 255 271 257 31 247
b 138 254 252 238 70 263
b 139 253 40 248 275 251
b 140 342 344 343 7 26
b 141 311 304 324 318 309
b 142 348 352 339 346 350
b 143 315 11 30 317 320
b 144 338 339 25 319 346
b 145 276 274 28 295 273
b 146 277 286 42 267 275
b 147 245 233 45 226 247
b 148 244 258 241 62 251
b 149 268 58 39 270 279
b 150 292 41 293 301 270
b 151 330 332 331 324 318
b 152 269 287 272 250 57
b 153 135 114 91 95 136
b 154 137 113 132 138 109
b 155 237 252 238 220 73
b 156 322 8 317 320 340
b 157 146 144 94 98 154
b 158 261 259 46 267 273
b 159 151 149 88 142 181
b 160 153 150 157 134 167
b 161 160 162 105 109 140
b 162 163 165 93 142 181
b 163 169 173 167 104 190
b 164 228 216 43 62 227
b 165 168 157 172 173 167
b 166 174 170 184 82 185
b 167 225 216 217 43 226
b 168 224 222 209 86 231
b 169 179 177 158 199 180
b 170 183 170 158 199 184
b 171 187 106 87 188 203
b 172 189 182 71 75 191
b 173 193 190 106 196 203
b 174 312 29 288 326 313
b 175 194 184 208 185 197
b 176 308 305 288 326 310
b 177 200 202 199 180 77
b 178 307 305 310 23 293
b 179 206 205 216 66 217
b 180 207 222 209 89 188
b 181 210 60 208 197 227
b 182 212 214 73 77 191
b 183 215 205 216 197 227
b 184 219 209 71 220 231
b 185 223 60 241 236 221
b 186 235 233 31 230 247
b 187 242 239 44 259 248
b 188 249 238 55 250 263
b 189 285 282 309 284 300
b 190 278 33 280 257 294
b 191 290 291 281 280 11
b 192 298 289 284 299 300
b 193 327 329 25 326 310
b 194 63 186 205 66 82 185
b 195 186 205 66 82 185 197
b 196 67 232 252 86 231 70
b 197 232 252 220 86 231 70
b 198 92 91 136 93 142 94
b 199 56 236 55 250 57 58
b 200 76 180 75 77 191 78
b 201 264 51 54 287 250 263
b 202 51 54 287 250 70 263
b 203 211 218 233 66 217 230
b 204 218 233 66 217 226 230
b 205 9 354 8 7 10 340
b 206 204 83 222 188 203 86
b 207 83 222 188 196 203 86
b 208 126 111 113 132 114 122 95
b 209 111 113 132 114 107 122 95
b 210 243 33 34 15 257 31 230
b 211 113 132 138 114 109 107 122 95
b 212 61 59 60 241 62 227
b 213 24 25 26 310 23 319
b 214 72 71 220 73 74 191
b 215 345 352 344 343 354 10 350
b 216 325 321 331 38 324 299 300
b 217 321 331 38 324 309 299 300
b 218 152 159 5 6 150 157 99
b 219 159 5 6 150 157 99 172
b 220 5 6 150 157 134 99 172 122
b 221 150 157 134 99 172 167 122
b 222 157 134 99 172 173 167 122
b 223 134 99 172 173 167 107 122
b 224 99 172 173 167 190 107 122 196
b 225 173 167 104 190 107 122 196
b 226 167 104 103 190 107 122 196
b 227 12 314 291 333 14 11 317
b 228 314 291 281 333 14 15 11 317
b 229 291 281 333 14 15 280 11 317
b 230 281 333 14 34 15 280 11 317
b 231 54 287 289 250 70 263 299
b 232 352 344 343 354 339 10 346 350
b 233 33 34 15 280 257 294 31 230
b 234 287 289 272 250 57 70 263 299
b 235 132 138 114 109 107 122 140 110 95
b 236 138 114 109 107 122 140 110 91 95
b 237 114 109 107 122 140 110 91 95 136
b 238 344 343 354 339 7 26 10 346 350
b 239 343 354 339 8 7 26 10 346 350
b 240 354 339 8 7 26 10 340 346 350
b 241 297 280 11 294 30 295
b 242 239 44 259 248 43 62 251
b 243 144 95 136 93 94 98 154
b 244 282 309 301 270 279 284 300
b 245 329 7 25 26 326 310 313
b 246 182 165 181 90 71 75 191
b 247 162 105 106 109 140 87 110
b 248 177 158 199 180 75 94 154
b 249 274 271 257 294 28 295 273
b 250 202 199 180 184 77 78 208
b 251 252 238 220 86 231 73 70 263
b 252 170 158 199 184 98 154 82 185
b 253 233 66 217 31 45 226 230 247
b 254 222 209 89 188 196 203 86 231
b 255 205 216 66 217 82 185 197 227
b 256 333 14 34 15 280 11 10 317 340
b 257 104 103 190 105 106 107 122 140 196
b 258 190 105 106 107 122 140 196 203
b 259 105 106 109 107 122 140 87 110 196 203
b 260 106 109 107 122 140 87 110 188 196 203
b 261 289 272 250 57 70 263 284 299 300
b 262 149 88 87 110 91 142 181
b 263 214 73 74 77 191 78 221
b 264 286 305 288 27 42 267 275
b 265 304 324 318 309 23 293 301
b 266 332 331 38 324 318 319 346 350
b 267 41 40 42 275 293 301 39 270
b 268 40 248 42 275 293 301 39 251 270
b 269 88 87 110 91 142 181 89 90 188
b 270 339 8 7 25 26 10 340 319 346 350
b 271 272 250 57 70 263 58 279 284 299 300
b 272 158 199 180 184 75 94 98 154 82 185
b 273 59 60 241 78 208 221 62 227
b 274 60 241 236 78 208 221 62 197 227
b 275 44 259 248 46 43 45 62 226 251
b 276 331 38 324 318 309 319 346 350 299 300
b 277 29 288 27 326 313 28 30 295
b 278 271 257 294 28 295 46 273 31 247
b 279 8 7 25 26 10 317 320 340 319 346 350
b 280 109 107 122 140 87 110 91 95 136 188 196 203
b 281 258 241 236 57 58 39 62 251
b 282 165 93 142 181 90 71 75 94 191
b 283 324 318 309 23 293 301 319 346 350 299 300
b 284 87 110 91 95 136 142 181 89 90 188 196 203
b 285 91 95 136 93 142 181 89 90 188 196 203 94
b 286 238 220 86 231 73 74 55 250 70 263
b 287 216 66 217 43 62 82 185 197 226 227
b 288 95 136 93 142 181 89 90 188 196 203 94 98 154
b 289 209 89 90 188 196 203 71 220 86 231
b 290 34 15 280 11 257 294 10 317 340 31 230
b 291 280 11 257 294 10 30 295 317 340 31 230
b 292 11 257 294 10 30 295 317 320 340 31 230
b 293 199 180 184 75 77 94 98 154 78 208 82 185
b 294 180 184 75 77 94 98 154 191 78 208 82 185
b 295 184 75 77 94 98 154 191 78 208 82 185 197
b 296 309 23 293 301 319 346 350 270 279 284 299 300
b 297 93 142 181 89 90 188 196 203 71 75 94 98 154 191
b 298 89 90 188 196 203 71 220 86 231 75 94 98 154 191
b 299 71 220 86 231 73 74 75 94 98 154 191
b 300 259 248 46 267 273 275 43 45 62 226 251
b 301 305 288 27 326 310 42 267 275 23 293
b 302 7 25 26 326 310 313 10 317 320 340 319 346 350
b 303 25 26 326 310 313 10 317 320 340 23 319 346 350
b 304 241 236 78 208 221 57 58 39 62 197 227 251
b 305 236 55 78 208 221 250 57 58 39 62 197 227 251
b 306 220 86 231 73 74 75 94 98 154 191 55 250 70 263
b 307 73 74 75 77 94 98 154 191 55 78 221 250 70 263
b 308 75 77 94 98 154 191 55 78 208 221 250 70 263 82 185 197
b 309 55 78 208 221 250 57 70 263 58 39 62 82 185 197 227 251
b 310 66 217 31 43 45 62 82 185 197 226 227 230 247
b 311 257 294 10 28 30 295 317 320 340 46 273 31 230 247
b 312 288 27 326 310 313 28 30 295 42 267 275 23 293
b 313 27 326 310 313 28 30 295 42 267 273 275 23 293
b 314 250 57 70 263 58 39 62 82 185 197 227 251 279 284 299 300
b 315 58 39 62 82 185 197 227 251 270 279 284 299 300
b 316 248 42 46 267 273 275 293 301 39 43 45 62 226 251 270
b 317 326 310 313 10 28 30 295 317 320 340 42 267 273 275 23 293 319 346 350
b 318 10 28 30 295 317 320 340 42 46 267 273 275 23 293 319 346 350 31 230 247
b 319 42 46 267 273 275 23 293 301 319 346 350 31 39 43 45 62 226 230 247 251 270
b 320 23 293 301 319 346 350 31 39 43 45 62 226 230 247 251 270 279 284 299 300
b 321 31 39 43 45 62 82 185 197 226 227 230 247 251 270 279 284 299 300
1 3
3 5
5 9
9 30
30 31
31 85
85 86
86 87
87 113
113 114
114 115
115 116
116 118
118 218
218 219
219 220
220 221
221 222
222 223
223 224
224 225
225 226
226 257
257 258
258 259
259 260
260 280
280 237
280 284
284 285
285 288
288 297
297 298
298 289
298 299
299 306
306 307
307 308
308 295
295 294
294 293
308 309
309 305
309 314
314 315
315 321
321 320
320 319
319 316
319 318
318 317
318 311
317 313
313 312
320 296
305 304
321 310
317 303
303 302
316 300
311 292
302 279
292 291
293 272
314 271
312 301
296 283
310 287
279 270
291 290
306 286
316 268
311 278
300 275
271 261
304 274
283 276
270 240
284 269
240 239
237 236
297 282
239 238
236 235
312 277
304 281
310 253
272 252
287 255
290 256
290 233
286 251
268 267
261 234
274 273
276 266
235 211
238 232
256 230
230 229
289 254
229 228
293 250
296 244
259 247
302 245
272 248
301 264
283 265
278 249
275 242
276 217
269 262
288 243
282 246
233 210
234 231
232 215
211 209
228 227
217 216
209 208
307 263
294 200
305 199
220 132
224 130
130 129
303 213
291 241
285 198
240 205
235 121
253 204
252 128
255 195
251 197
273 212
266 120
254 207
228 134
299 214
210 133
231 202
215 125
216 126
227 131
208 117
204 203
128 127
195 194
197 196
120 119
207 206
202 201
125 124
124 123
123 122
315 149
225 163
257 100
258 173
260 171
300 135
300 158
292 143
279 156
114 46
301 176
301 178
237 153
287 164
287 167
270 144
286 188
268 139
278 137
275 64
261 192
274 181
274 185
269 54
282 162
238 140
277 102
277 174
281 136
281 148
253 147
253 186
252 170
252 166
255 183
255 179
256 111
233 190
251 138
251 155
267 50
267 150
234 152
266 151
211 154
232 142
229 191
254 168
254 180
250 177
244 189
289 184
247 161
245 193
248 169
264 146
265 141
249 145
242 187
221 160
262 159
243 67
243 157
67 66
66 63
246 172
210 112
208 110
263 182
200 105
199 55
132 65
129 84
84 83
83 58
58 57
57 56
213 49
198 62
205 82
121 80
212 52
222 165
134 72
214 53
72 71
71 70
70 69
69 68
133 94
126 101
101 99
99 98
98 97
131 76
203 92
117 103
92 91
91 61
61 60
60 59
127 45
45 44
44 43
194 107
107 106
106 104
196 96
96 95
95 93
119 81
81 79
79 78
78 77
77 75
75 74
74 73
206 109
109 108
108 90
201 89
89 88
88 51
295 175
122 48
48 47
47 18
305 34
73 6
73 17
112 37
110 22
65 11
65 23
56 7
11 10
10 4
97 12
72 40
111 42
59 13
59 14
68 16
257 25
122 19
271 38
30 29
241 39
250 33
245 41
248 32
242 36
262 26
210 35
209 24
208 21
113 27
125 20
127 28
18 8
18 15
4 2
END

EOF
